Maximize
    x0_5 + x0_7 + x0_6 + x1_6 + x1_5 + x1_0 + x2_4 + x2_0 + x2_7 + x3_6 + x3_5 + x3_7 + x4_1 + x4_6 + x4_7 + x5_0 + x5_7 + x5_4 + x6_5 + x6_7 + x6_6 + x7_7 + x7_0 + x7_4 + x8_5 + x8_7 + x8_6 + x9_2 + x9_6 + x9_5 + x10_6 + x10_4 + x10_0

Subject To
    x0_5 + x0_7 + x0_6 = 1
    x1_6 + x1_5 + x1_0 = 1
    x2_4 + x2_0 + x2_7 = 1
    x3_6 + x3_5 + x3_7 = 1
    x4_1 + x4_6 + x4_7 = 1
    x5_0 + x5_7 + x5_4 = 1
    x6_5 + x6_7 + x6_6 = 1
    x7_7 + x7_0 + x7_4 = 1
    x8_5 + x8_7 + x8_6 = 1
    x9_2 + x9_6 + x9_5 = 1
    x10_6 + x10_4 + x10_0 = 1
    x1_0 + x2_0 + x5_0 + x7_0 + x10_0 <= 2
    x4_1 <= 1
    x9_2 <= 1
    x2_4 + x5_4 + x7_4 + x10_4 <= 1
    x0_5 + x1_5 + x3_5 + x6_5 + x8_5 + x9_5 <= 1
    x0_6 + x1_6 + x3_6 + x4_6 + x6_6 + x8_6 + x9_6 + x10_6 <= 1
    x0_7 + x2_7 + x3_7 + x4_7 + x5_7 + x6_7 + x7_7 + x8_7 <= 1

Binary
    x0_5
    x0_7
    x0_6
    x1_6
    x1_5
    x1_0
    x2_4
    x2_0
    x2_7
    x3_6
    x3_5
    x3_7
    x4_1
    x4_6
    x4_7
    x5_0
    x5_7
    x5_4
    x6_5
    x6_7
    x6_6
    x7_7
    x7_0
    x7_4
    x8_5
    x8_7
    x8_6
    x9_2
    x9_6
    x9_5
    x10_6
    x10_4
    x10_0
End
